c turning on binary mode checking
c parsing input formula with 202048 variables and 780990 clauses
c finished parsing, read 2410029 bytes from proof file
c detected empty clause; start verification via backward checking
c 2534 of 780990 clauses in core                            
c 829 of 92575 lemmas in core using 33766 resolution steps
c 0 RAT lemmas in core; 98 redundant literals in core lemmas
s VERIFIED
c verification time: 0.724 seconds
